191
0 104 13 89 87 110 84 39 121 30 
44 68 41 49 141 60 14 112 111 135 
79 64 188 152 20 165 25 183 4 55 
109 176 166 127 168 37 159 10 80 145 
62 27 122 16 48 129 106 149 91 38 
171 53 23 19 57 7 74 169 51 90 
137 35 88 150 32 45 3 156 52 8 
154 107 130 131 24 116 136 173 66 138 
157 132 126 164 70 67 118 155 167 36 
22 77 190 26 5 172 58 21 2 72 
108 82 134 115 180 34 81 170 143 98 
177 182 128 117 95 102 42 114 75 31 
69 153 175 101 184 146 163 148 96 43 
1 76 125 92 185 120 73 83 33 12 
50 28 11 142 63 78 17 9 174 99 
6 181 65 123 178 158 113 56 119 15 
161 139 40 124 71 29 100 54 47 85 
151 61 86 133 189 160 162 179 103 59 
187 140 144 147 93 105 18 186 46 97 
94 
